Maximize
  0.00501187888537573 Z_390_0_0 + 0.0129918233841082 Z_390_0_1
   + 0.8800248424569321 Z_390_0_2 + 0.0270800390833047 Z_390_0_3
   + 0.8003411630400415 Z_390_1_0 + 0.00872608667418254 Z_390_1_1
   + 0.0293926673097189 Z_390_1_2 + 0.1152941408109888 Z_390_1_3
   + 0.0464333531268246 Z_390_2_0 + 0.0715214182251029 Z_390_2_1
   + 0.0387377010449208 Z_390_2_2 + 0.5930552843932243 Z_390_2_3
   + 0.1472318020779977 Z_390_3_0 + 0.0924527058555318 Z_390_3_1
   + 0.010483126246472 Z_390_3_2 + 0.4318068325231241 Z_390_3_3
   + 0.015191158466031 Z_424_0_0 + 0.0104724442743911 Z_424_0_1
   + 0.0531304375376283 Z_424_0_2 + 0.1376285976555682 Z_424_0_3
   + 0.000958136 Z_262_1_0 + 0.0174250881607749 Z_262_1_1
   + 0.0557480465770679 Z_262_1_2 + 0.00147719453132907 Z_262_1_3
   + 0.0210882318883947 Z_262_2_0 + 0.0624933291529344 Z_262_2_1
   + 0.00487103669561378 Z_262_2_2 + 6.9775267046358607e-04 Z_262_2_3
   + 0.0493449447516164 Z_262_3_0 + 0.454663443898397 Z_262_3_1
   + 0.00325467319637808 Z_262_3_2 + 0.1891740064607027 Z_262_3_3
   + 0.0326605808528885 Z_262_4_0 + 0.814496065983872 Z_262_4_1
   + 0.00354502873868108 Z_262_4_2 + 0.0472321423486843 Z_262_4_3
   + 0.0326605808528885 Z_262_0_0 + 0.814496065983872 Z_262_0_1
   + 0.00354502873868108 Z_262_0_2 + 0.0472321423486843 Z_262_0_3
   + 0.0814536883172446 Z_56_0_0 + 0.0604831580745492 Z_56_0_1
   + 0.0264550151254569 Z_56_0_2 + 0.0552152421763046 Z_56_0_3
   + 0.0108033510896991 Z_253_9_0 + 0.0394653790621523 Z_253_9_1
   + 0.3934669352424848 Z_253_9_2 + 0.0197368009342411 Z_253_9_3
   + 0.0526659642409832 Z_253_1_0 + 0.0385171359297993 Z_253_1_1
   + 0.0751505122915442 Z_253_1_2 + 0.00363307843266337 Z_253_1_3
   + 0.00285742052164534 Z_253_0_0 + 0.00445029901399984 Z_253_0_1
   + 0.078466637685123 Z_253_0_2 + 0.00740809352787318 Z_253_0_3
   + 0.00699739516961511 Z_253_2_0 + 0.073624814728195 Z_253_2_1
   + 0.0234713669050333 Z_253_2_2 + 0.0136709896032348 Z_253_2_3
   + 0.0770909670893068 Z_36_0_0 + 0.3121118600366776 Z_36_0_1
   + 0.0901747236381521 Z_36_0_2 + 0.0080043217327603 Z_36_0_3
   + 0.0215793031446565 Z_35_0_0 + 0.8451541256316893 Z_35_0_1
   + 0.0217722133436015 Z_35_0_2 + 0.1134157918620179 Z_35_0_3
   + 0.0193590437602906 Z_19_5_0 + 0.0165837558015747 Z_19_5_1
   + 0.1285020685965451 Z_19_5_2 + 0.0266234857303055 Z_19_5_3
   + 0.00550799593576177 Z_19_0_0 + 0.00602773785674672 Z_19_0_1
   + 0.00955020512470354 Z_19_0_2 + 0.0139097102226441 Z_19_0_3
   + 0.0336940963114553 Z_19_2_0 + 0.0310774006476227 Z_19_2_1
   + 0.00617391 Z_19_2_2 + 0.8025238851667408 Z_19_2_3
   + 0.0243081422758405 Z_19_1_0 + 0.0377625262407771 Z_19_1_1
   + 0.00446365330397458 Z_19_1_2 + 0.0682870076461962 Z_19_1_3
   + 0.0336940963114553 Z_19_3_0 + 0.0310774006476227 Z_19_3_1
   + 0.00617391 Z_19_3_2 + 0.8025238851667408 Z_19_3_3
   + 0.0336940963114553 Z_19_7_0 + 0.0310774006476227 Z_19_7_1
   + 0.00617391 Z_19_7_2 + 0.8025238851667408 Z_19_7_3
   + 0.108304800390792 Z_19_6_0 + 0.1058654431442905 Z_19_6_1
   + 0.0107013945576611 Z_19_6_2 + 0.0552726631117901 Z_19_6_3
   + 0.088389667106867 Z_19_4_0 + 0.0753731914077601 Z_19_4_1
   + 0.0484755569066857 Z_19_4_2 + 0.0934363675713066 Z_19_4_3
   + 0.00309080790073917 Z_464_0_0 + 0.0112784861974771 Z_464_0_1
   + 0.7807742652612895 Z_464_0_2 + 0.0191326743856244 Z_464_0_3
   + 0.0206686382958059 Z_193_0_0 + 0.1222444645437737 Z_193_0_1
   + 0.0204791101268708 Z_193_0_2 + 0.0216069670585847 Z_193_0_3
   + 0.00914336018317453 Z_401_0_0 + 0.0146176564000877 Z_401_0_1
   + 0.7071080850450971 Z_401_0_2 + 0.0137204019296901 Z_401_0_3
   + 0.1687501166080594 Z_474_3_0 + 0.0859254005909977 Z_474_3_1
   + 0.0268879758941686 Z_474_3_2 + 0.1945035756555929 Z_474_3_3
   + 0.4073790527964518 Z_474_1_0 + 0.0496013306305783 Z_474_1_1
   + 0.0363372237367824 Z_474_1_2 + 0.1161967014200804 Z_474_1_3
   + 0.00529766753023492 Z_474_0_0 + 0.00908785446431888 Z_474_0_1
   + 0.859364839253439 Z_474_0_2 + 0.0159048722426686 Z_474_0_3
   + 0.0359350444087462 Z_474_2_0 + 0.099403346762449 Z_474_2_1
   + 0.00767900142414315 Z_474_2_2 + 0.7015724417497239 Z_474_2_3
   + 0.4028911801710187 Z_121_1_0 + 0.0404265271796419 Z_121_1_1
   + 0.0217619994721312 Z_121_1_2 + 0.1387568901932467 Z_121_1_3
   + 0.00914336018317453 Z_121_0_0 + 0.0146176564000877 Z_121_0_1
   + 0.7071080850450971 Z_121_0_2 + 0.0137204019296901 Z_121_0_3 + [
   1.41392e-07 Z_390_0_0 * Z_424_0_0 + 1.27551e-06 Z_390_0_0 * Z_262_1_0
   + 8.2644628099173541e-04 Z_390_0_0 * Z_262_3_0
   + 8.2644628099173541e-04 Z_390_0_0 * Z_262_0_0
   + 1.27551e-06 Z_390_0_0 * Z_19_5_0 + 1.58484e-07 Z_390_0_0 * Z_19_3_0
   + 1.7263e-07 Z_390_0_0 * Z_19_7_0 + 2.03777e-07 Z_390_0_0 * Z_19_4_0
   + 2.55102e-06 Z_390_0_0 * Z_401_0_0 + 2.55102e-06 Z_390_0_0 * Z_121_0_0
   + 1.41392e-07 Z_390_0_1 * Z_424_0_1 + 1.27551e-06 Z_390_0_1 * Z_262_1_1
   + 8.2644628099173541e-04 Z_390_0_1 * Z_262_3_1
   + 8.2644628099173541e-04 Z_390_0_1 * Z_262_0_1
   + 1.27551e-06 Z_390_0_1 * Z_19_5_1 + 1.58484e-07 Z_390_0_1 * Z_19_3_1
   + 1.7263e-07 Z_390_0_1 * Z_19_7_1 + 2.03777e-07 Z_390_0_1 * Z_19_4_1
   + 2.55102e-06 Z_390_0_1 * Z_401_0_1 + 2.55102e-06 Z_390_0_1 * Z_121_0_1
   + 1.41392e-07 Z_390_0_2 * Z_424_0_2 + 1.27551e-06 Z_390_0_2 * Z_262_1_2
   + 8.2644628099173541e-04 Z_390_0_2 * Z_262_3_2
   + 8.2644628099173541e-04 Z_390_0_2 * Z_262_0_2
   + 1.27551e-06 Z_390_0_2 * Z_19_5_2 + 1.58484e-07 Z_390_0_2 * Z_19_3_2
   + 1.7263e-07 Z_390_0_2 * Z_19_7_2 + 2.03777e-07 Z_390_0_2 * Z_19_4_2
   + 2.55102e-06 Z_390_0_2 * Z_401_0_2 + 2.55102e-06 Z_390_0_2 * Z_121_0_2
   + 1.41392e-07 Z_390_0_3 * Z_424_0_3 + 1.27551e-06 Z_390_0_3 * Z_262_1_3
   + 8.2644628099173541e-04 Z_390_0_3 * Z_262_3_3
   + 8.2644628099173541e-04 Z_390_0_3 * Z_262_0_3
   + 1.27551e-06 Z_390_0_3 * Z_19_5_3 + 1.58484e-07 Z_390_0_3 * Z_19_3_3
   + 1.7263e-07 Z_390_0_3 * Z_19_7_3 + 2.03777e-07 Z_390_0_3 * Z_19_4_3
   + 2.55102e-06 Z_390_0_3 * Z_401_0_3 + 2.55102e-06 Z_390_0_3 * Z_121_0_3
   + 0.0014972052169284 Z_390_1_0 * Z_262_1_0 + 0.4 Z_390_1_0 * Z_253_2_0
   + 1.373785726893539e-04 Z_390_1_0 * Z_19_3_0
   + 1.4964078189818445e-04 Z_390_1_0 * Z_19_7_0
   + 0.00017664 Z_390_1_0 * Z_19_4_0
   + 0.0027681660899654 Z_390_1_0 * Z_401_0_0 + 0.4 Z_390_1_0 * Z_474_1_0
   + 0.0027681660899654 Z_390_1_0 * Z_121_0_0
   + 0.0014972052169284 Z_390_1_1 * Z_262_1_1 + 0.4 Z_390_1_1 * Z_253_2_1
   + 1.373785726893539e-04 Z_390_1_1 * Z_19_3_1
   + 1.4964078189818445e-04 Z_390_1_1 * Z_19_7_1
   + 0.00017664 Z_390_1_1 * Z_19_4_1
   + 0.0027681660899654 Z_390_1_1 * Z_401_0_1 + 0.4 Z_390_1_1 * Z_474_1_1
   + 0.0027681660899654 Z_390_1_1 * Z_121_0_1
   + 0.0014972052169284 Z_390_1_2 * Z_262_1_2 + 0.4 Z_390_1_2 * Z_253_2_2
   + 1.373785726893539e-04 Z_390_1_2 * Z_19_3_2
   + 1.4964078189818445e-04 Z_390_1_2 * Z_19_7_2
   + 0.00017664 Z_390_1_2 * Z_19_4_2
   + 0.0027681660899654 Z_390_1_2 * Z_401_0_2 + 0.4 Z_390_1_2 * Z_474_1_2
   + 0.0027681660899654 Z_390_1_2 * Z_121_0_2
   + 0.0014972052169284 Z_390_1_3 * Z_262_1_3 + 0.4 Z_390_1_3 * Z_253_2_3
   + 1.373785726893539e-04 Z_390_1_3 * Z_19_3_3
   + 1.4964078189818445e-04 Z_390_1_3 * Z_19_7_3
   + 0.00017664 Z_390_1_3 * Z_19_4_3
   + 0.0027681660899654 Z_390_1_3 * Z_401_0_3 + 0.4 Z_390_1_3 * Z_474_1_3
   + 0.0027681660899654 Z_390_1_3 * Z_121_0_3
   + 0.0283374267886912 Z_390_2_0 * Z_262_3_0
   + 0.0283374267886912 Z_390_2_0 * Z_262_0_0
   + 8.4162e-05 Z_390_2_0 * Z_253_2_0
   + 0.1888152853377924 Z_390_2_0 * Z_35_0_0
   + 0.1888152853377924 Z_390_2_0 * Z_474_3_0
   + 0.1888152853377924 Z_390_2_0 * Z_474_2_0
   + 0.0283374267886912 Z_390_2_1 * Z_262_3_1
   + 0.0283374267886912 Z_390_2_1 * Z_262_0_1
   + 8.4162e-05 Z_390_2_1 * Z_253_2_1
   + 0.1888152853377924 Z_390_2_1 * Z_35_0_1
   + 0.1888152853377924 Z_390_2_1 * Z_474_3_1
   + 0.1888152853377924 Z_390_2_1 * Z_474_2_1
   + 0.0283374267886912 Z_390_2_2 * Z_262_3_2
   + 0.0283374267886912 Z_390_2_2 * Z_262_0_2
   + 8.4162e-05 Z_390_2_2 * Z_253_2_2
   + 0.1888152853377924 Z_390_2_2 * Z_35_0_2
   + 0.1888152853377924 Z_390_2_2 * Z_474_3_2
   + 0.1888152853377924 Z_390_2_2 * Z_474_2_2
   + 0.0283374267886912 Z_390_2_3 * Z_262_3_3
   + 0.0283374267886912 Z_390_2_3 * Z_262_0_3
   + 8.4162e-05 Z_390_2_3 * Z_253_2_3
   + 0.1888152853377924 Z_390_2_3 * Z_35_0_3
   + 0.1888152853377924 Z_390_2_3 * Z_474_3_3
   + 0.1888152853377924 Z_390_2_3 * Z_474_2_3
   + 9.18274e-05 Z_390_3_0 * Z_262_1_0 + 8.4162e-05 Z_390_3_0 * Z_253_2_0
   + 0.2056331445324097 Z_390_3_0 * Z_35_0_0
   + 0.2056331445324097 Z_390_3_0 * Z_474_3_0
   + 0.2056331445324097 Z_390_3_0 * Z_474_2_0
   + 9.18274e-05 Z_390_3_1 * Z_262_1_1 + 8.4162e-05 Z_390_3_1 * Z_253_2_1
   + 0.2056331445324097 Z_390_3_1 * Z_35_0_1
   + 0.2056331445324097 Z_390_3_1 * Z_474_3_1
   + 0.2056331445324097 Z_390_3_1 * Z_474_2_1
   + 9.18274e-05 Z_390_3_2 * Z_262_1_2 + 8.4162e-05 Z_390_3_2 * Z_253_2_2
   + 0.2056331445324097 Z_390_3_2 * Z_35_0_2
   + 0.2056331445324097 Z_390_3_2 * Z_474_3_2
   + 0.2056331445324097 Z_390_3_2 * Z_474_2_2
   + 9.18274e-05 Z_390_3_3 * Z_262_1_3 + 8.4162e-05 Z_390_3_3 * Z_253_2_3
   + 0.2056331445324097 Z_390_3_3 * Z_35_0_3
   + 0.2056331445324097 Z_390_3_3 * Z_474_3_3
   + 0.2056331445324097 Z_390_3_3 * Z_474_2_3 + 0.4 Z_424_0_0 * Z_262_1_0
   + 0.0637596734186401 Z_424_0_0 * Z_262_2_0
   + 0.0292426768931283 Z_424_0_0 * Z_262_3_0
   + 0.0131921987340132 Z_424_0_0 * Z_262_4_0
   + 0.0412855621693906 Z_424_0_0 * Z_262_0_0
   + 0.0275393583516996 Z_424_0_0 * Z_253_2_0
   + 0.0311115558597514 Z_424_0_0 * Z_35_0_0 + 0.4 Z_424_0_0 * Z_19_5_0
   + 0.1133468185078575 Z_424_0_0 * Z_19_3_0
   + 0.0877605774149195 Z_424_0_0 * Z_19_7_0
   + 0.0929647155255008 Z_424_0_0 * Z_19_6_0
   + 0.1035949351379265 Z_424_0_0 * Z_19_4_0 + 0.4 Z_424_0_1 * Z_262_1_1
   + 0.0637596734186401 Z_424_0_1 * Z_262_2_1
   + 0.0292426768931283 Z_424_0_1 * Z_262_3_1
   + 0.0131921987340132 Z_424_0_1 * Z_262_4_1
   + 0.0412855621693906 Z_424_0_1 * Z_262_0_1
   + 0.0275393583516996 Z_424_0_1 * Z_253_2_1
   + 0.0311115558597514 Z_424_0_1 * Z_35_0_1 + 0.4 Z_424_0_1 * Z_19_5_1
   + 0.1133468185078575 Z_424_0_1 * Z_19_3_1
   + 0.0877605774149195 Z_424_0_1 * Z_19_7_1
   + 0.0929647155255008 Z_424_0_1 * Z_19_6_1
   + 0.1035949351379265 Z_424_0_1 * Z_19_4_1 + 0.4 Z_424_0_2 * Z_262_1_2
   + 0.0637596734186401 Z_424_0_2 * Z_262_2_2
   + 0.0292426768931283 Z_424_0_2 * Z_262_3_2
   + 0.0131921987340132 Z_424_0_2 * Z_262_4_2
   + 0.0412855621693906 Z_424_0_2 * Z_262_0_2
   + 0.0275393583516996 Z_424_0_2 * Z_253_2_2
   + 0.0311115558597514 Z_424_0_2 * Z_35_0_2 + 0.4 Z_424_0_2 * Z_19_5_2
   + 0.1133468185078575 Z_424_0_2 * Z_19_3_2
   + 0.0877605774149195 Z_424_0_2 * Z_19_7_2
   + 0.0929647155255008 Z_424_0_2 * Z_19_6_2
   + 0.1035949351379265 Z_424_0_2 * Z_19_4_2 + 0.4 Z_424_0_3 * Z_262_1_3
   + 0.0637596734186401 Z_424_0_3 * Z_262_2_3
   + 0.0292426768931283 Z_424_0_3 * Z_262_3_3
   + 0.0131921987340132 Z_424_0_3 * Z_262_4_3
   + 0.0412855621693906 Z_424_0_3 * Z_262_0_3
   + 0.0275393583516996 Z_424_0_3 * Z_253_2_3
   + 0.0311115558597514 Z_424_0_3 * Z_35_0_3 + 0.4 Z_424_0_3 * Z_19_5_3
   + 0.1133468185078575 Z_424_0_3 * Z_19_3_3
   + 0.0877605774149195 Z_424_0_3 * Z_19_7_3
   + 0.0929647155255008 Z_424_0_3 * Z_19_6_3
   + 0.1035949351379265 Z_424_0_3 * Z_19_4_3
   + 7.71605e-05 Z_262_1_0 * Z_56_0_0 + 0.000526795 Z_262_1_0 * Z_253_9_0
   + 0.004 Z_262_1_0 * Z_253_2_0 + 0.00305192231470472 Z_262_1_0 * Z_19_0_0
   + 0.00203891190125833 Z_262_1_0 * Z_19_3_0
   + 0.00203891190125833 Z_262_1_0 * Z_19_7_0
   + 0.000526795 Z_262_1_0 * Z_19_6_0
   + 0.00203891190125833 Z_262_1_0 * Z_19_4_0
   + 0.00391257094553798 Z_262_1_0 * Z_464_0_0
   + 0.0517107717946971 Z_262_1_0 * Z_401_0_0
   + 0.0014972052169284 Z_262_1_0 * Z_474_1_0
   + 0.1027777777777777 Z_262_1_0 * Z_474_0_0
   + 0.0517107717946971 Z_262_1_0 * Z_121_0_0
   + 7.71605e-05 Z_262_1_1 * Z_56_0_1 + 0.000526795 Z_262_1_1 * Z_253_9_1
   + 0.004 Z_262_1_1 * Z_253_2_1 + 0.00305192231470472 Z_262_1_1 * Z_19_0_1
   + 0.00203891190125833 Z_262_1_1 * Z_19_3_1
   + 0.00203891190125833 Z_262_1_1 * Z_19_7_1
   + 0.000526795 Z_262_1_1 * Z_19_6_1
   + 0.00203891190125833 Z_262_1_1 * Z_19_4_1
   + 0.00391257094553798 Z_262_1_1 * Z_464_0_1
   + 0.0517107717946971 Z_262_1_1 * Z_401_0_1
   + 0.0014972052169284 Z_262_1_1 * Z_474_1_1
   + 0.1027777777777777 Z_262_1_1 * Z_474_0_1
   + 0.0517107717946971 Z_262_1_1 * Z_121_0_1
   + 7.71605e-05 Z_262_1_2 * Z_56_0_2 + 0.000526795 Z_262_1_2 * Z_253_9_2
   + 0.004 Z_262_1_2 * Z_253_2_2 + 0.00305192231470472 Z_262_1_2 * Z_19_0_2
   + 0.00203891190125833 Z_262_1_2 * Z_19_3_2
   + 0.00203891190125833 Z_262_1_2 * Z_19_7_2
   + 0.000526795 Z_262_1_2 * Z_19_6_2
   + 0.00203891190125833 Z_262_1_2 * Z_19_4_2
   + 0.00391257094553798 Z_262_1_2 * Z_464_0_2
   + 0.0517107717946971 Z_262_1_2 * Z_401_0_2
   + 0.0014972052169284 Z_262_1_2 * Z_474_1_2
   + 0.1027777777777777 Z_262_1_2 * Z_474_0_2
   + 0.0517107717946971 Z_262_1_2 * Z_121_0_2
   + 7.71605e-05 Z_262_1_3 * Z_56_0_3 + 0.000526795 Z_262_1_3 * Z_253_9_3
   + 0.004 Z_262_1_3 * Z_253_2_3 + 0.00305192231470472 Z_262_1_3 * Z_19_0_3
   + 0.00203891190125833 Z_262_1_3 * Z_19_3_3
   + 0.00203891190125833 Z_262_1_3 * Z_19_7_3
   + 0.000526795 Z_262_1_3 * Z_19_6_3
   + 0.00203891190125833 Z_262_1_3 * Z_19_4_3
   + 0.00391257094553798 Z_262_1_3 * Z_464_0_3
   + 0.0517107717946971 Z_262_1_3 * Z_401_0_3
   + 0.0014972052169284 Z_262_1_3 * Z_474_1_3
   + 0.1027777777777777 Z_262_1_3 * Z_474_0_3
   + 0.0517107717946971 Z_262_1_3 * Z_121_0_3
   + 0.2574950365461682 Z_262_2_0 * Z_253_2_0
   + 0.0637596734186401 Z_262_2_0 * Z_35_0_0
   + 0.1937353631275281 Z_262_2_0 * Z_19_1_0
   + 0.0637596734186401 Z_262_2_0 * Z_19_3_0
   + 0.0637596734186401 Z_262_2_0 * Z_19_7_0
   + 0.0929647155255008 Z_262_2_0 * Z_19_6_0
   + 0.0637596734186401 Z_262_2_0 * Z_19_4_0
   + 0.2574950365461682 Z_262_2_1 * Z_253_2_1
   + 0.0637596734186401 Z_262_2_1 * Z_35_0_1
   + 0.1937353631275281 Z_262_2_1 * Z_19_1_1
   + 0.0637596734186401 Z_262_2_1 * Z_19_3_1
   + 0.0637596734186401 Z_262_2_1 * Z_19_7_1
   + 0.0929647155255008 Z_262_2_1 * Z_19_6_1
   + 0.0637596734186401 Z_262_2_1 * Z_19_4_1
   + 0.2574950365461682 Z_262_2_2 * Z_253_2_2
   + 0.0637596734186401 Z_262_2_2 * Z_35_0_2
   + 0.1937353631275281 Z_262_2_2 * Z_19_1_2
   + 0.0637596734186401 Z_262_2_2 * Z_19_3_2
   + 0.0637596734186401 Z_262_2_2 * Z_19_7_2
   + 0.0929647155255008 Z_262_2_2 * Z_19_6_2
   + 0.0637596734186401 Z_262_2_2 * Z_19_4_2
   + 0.2574950365461682 Z_262_2_3 * Z_253_2_3
   + 0.0637596734186401 Z_262_2_3 * Z_35_0_3
   + 0.1937353631275281 Z_262_2_3 * Z_19_1_3
   + 0.0637596734186401 Z_262_2_3 * Z_19_3_3
   + 0.0637596734186401 Z_262_2_3 * Z_19_7_3
   + 0.0929647155255008 Z_262_2_3 * Z_19_6_3
   + 0.0637596734186401 Z_262_2_3 * Z_19_4_3
   + 3.01965e-05 Z_262_3_0 * Z_253_2_0
   + 0.083994227950346 Z_262_3_0 * Z_19_3_0
   + 0.0557880178244553 Z_262_3_0 * Z_19_7_0
   + 0.0658536698166189 Z_262_3_0 * Z_19_4_0
   + 0.00204081632653061 Z_262_3_0 * Z_121_1_0
   + 3.01965e-05 Z_262_3_1 * Z_253_2_1
   + 0.083994227950346 Z_262_3_1 * Z_19_3_1
   + 0.0557880178244553 Z_262_3_1 * Z_19_7_1
   + 0.0658536698166189 Z_262_3_1 * Z_19_4_1
   + 0.00204081632653061 Z_262_3_1 * Z_121_1_1
   + 3.01965e-05 Z_262_3_2 * Z_253_2_2
   + 0.083994227950346 Z_262_3_2 * Z_19_3_2
   + 0.0557880178244553 Z_262_3_2 * Z_19_7_2
   + 0.0658536698166189 Z_262_3_2 * Z_19_4_2
   + 0.00204081632653061 Z_262_3_2 * Z_121_1_2
   + 3.01965e-05 Z_262_3_3 * Z_253_2_3
   + 0.083994227950346 Z_262_3_3 * Z_19_3_3
   + 0.0557880178244553 Z_262_3_3 * Z_19_7_3
   + 0.0658536698166189 Z_262_3_3 * Z_19_4_3
   + 0.00204081632653061 Z_262_3_3 * Z_121_1_3
   + 0.1190082644628099 Z_262_4_0 * Z_19_5_0
   + 0.0147869567774549 Z_262_4_0 * Z_19_3_0
   + 0.016106818776437 Z_262_4_0 * Z_19_7_0
   + 0.0190129201011805 Z_262_4_0 * Z_19_4_0
   + 0.1190082644628099 Z_262_4_1 * Z_19_5_1
   + 0.0147869567774549 Z_262_4_1 * Z_19_3_1
   + 0.016106818776437 Z_262_4_1 * Z_19_7_1
   + 0.0190129201011805 Z_262_4_1 * Z_19_4_1
   + 0.1190082644628099 Z_262_4_2 * Z_19_5_2
   + 0.0147869567774549 Z_262_4_2 * Z_19_3_2
   + 0.016106818776437 Z_262_4_2 * Z_19_7_2
   + 0.0190129201011805 Z_262_4_2 * Z_19_4_2
   + 0.1190082644628099 Z_262_4_3 * Z_19_5_3
   + 0.0147869567774549 Z_262_4_3 * Z_19_3_3
   + 0.016106818776437 Z_262_4_3 * Z_19_7_3
   + 0.0190129201011805 Z_262_4_3 * Z_19_4_3
   + 1.9563e-05 Z_262_0_0 * Z_253_2_0
   + 0.1190082644628099 Z_262_0_0 * Z_19_5_0
   + 0.094269762540981 Z_262_0_0 * Z_19_3_0
   + 0.0659269161309709 Z_262_0_0 * Z_19_7_0
   + 0.0778218968198173 Z_262_0_0 * Z_19_4_0
   + 0.00204081632653061 Z_262_0_0 * Z_121_1_0
   + 1.9563e-05 Z_262_0_1 * Z_253_2_1
   + 0.1190082644628099 Z_262_0_1 * Z_19_5_1
   + 0.094269762540981 Z_262_0_1 * Z_19_3_1
   + 0.0659269161309709 Z_262_0_1 * Z_19_7_1
   + 0.0778218968198173 Z_262_0_1 * Z_19_4_1
   + 0.00204081632653061 Z_262_0_1 * Z_121_1_1
   + 1.9563e-05 Z_262_0_2 * Z_253_2_2
   + 0.1190082644628099 Z_262_0_2 * Z_19_5_2
   + 0.094269762540981 Z_262_0_2 * Z_19_3_2
   + 0.0659269161309709 Z_262_0_2 * Z_19_7_2
   + 0.0778218968198173 Z_262_0_2 * Z_19_4_2
   + 0.00204081632653061 Z_262_0_2 * Z_121_1_2
   + 1.9563e-05 Z_262_0_3 * Z_253_2_3
   + 0.1190082644628099 Z_262_0_3 * Z_19_5_3
   + 0.094269762540981 Z_262_0_3 * Z_19_3_3
   + 0.0659269161309709 Z_262_0_3 * Z_19_7_3
   + 0.0778218968198173 Z_262_0_3 * Z_19_4_3
   + 0.00204081632653061 Z_262_0_3 * Z_121_1_3
   + 1.68663e-05 Z_253_9_0 * Z_35_0_0 + 0.4 Z_253_9_0 * Z_19_3_0
   + 0.4 Z_253_9_0 * Z_19_7_0 + 0.4 Z_253_9_0 * Z_19_6_0
   + 0.4 Z_253_9_0 * Z_19_4_0 + 1.68663e-05 Z_253_9_1 * Z_35_0_1
   + 0.4 Z_253_9_1 * Z_19_3_1 + 0.4 Z_253_9_1 * Z_19_7_1
   + 0.4 Z_253_9_1 * Z_19_6_1 + 0.4 Z_253_9_1 * Z_19_4_1
   + 1.68663e-05 Z_253_9_2 * Z_35_0_2 + 0.4 Z_253_9_2 * Z_19_3_2
   + 0.4 Z_253_9_2 * Z_19_7_2 + 0.4 Z_253_9_2 * Z_19_6_2
   + 0.4 Z_253_9_2 * Z_19_4_2 + 1.68663e-05 Z_253_9_3 * Z_35_0_3
   + 0.4 Z_253_9_3 * Z_19_3_3 + 0.4 Z_253_9_3 * Z_19_7_3
   + 0.4 Z_253_9_3 * Z_19_6_3 + 0.4 Z_253_9_3 * Z_19_4_3
   + 0.0311115558597514 Z_253_2_0 * Z_35_0_0
   + 0.1275160936890178 Z_253_2_0 * Z_19_1_0
   + 0.0547108294056277 Z_253_2_0 * Z_19_3_0
   + 0.0595942375167125 Z_253_2_0 * Z_19_7_0
   + 0.2330587627993987 Z_253_2_0 * Z_19_6_0
   + 0.0703466334428251 Z_253_2_0 * Z_19_4_0
   + 2.2305512832387206e-04 Z_253_2_0 * Z_193_0_0
   + 0.0027681660899654 Z_253_2_0 * Z_401_0_0 + 0.4 Z_253_2_0 * Z_474_1_0
   + 8.4162e-05 Z_253_2_0 * Z_474_2_0
   + 4.4444444444444436e-04 Z_253_2_0 * Z_121_1_0
   + 0.0027681660899654 Z_253_2_0 * Z_121_0_0
   + 0.0311115558597514 Z_253_2_1 * Z_35_0_1
   + 0.1275160936890178 Z_253_2_1 * Z_19_1_1
   + 0.0547108294056277 Z_253_2_1 * Z_19_3_1
   + 0.0595942375167125 Z_253_2_1 * Z_19_7_1
   + 0.2330587627993987 Z_253_2_1 * Z_19_6_1
   + 0.0703466334428251 Z_253_2_1 * Z_19_4_1
   + 2.2305512832387206e-04 Z_253_2_1 * Z_193_0_1
   + 0.0027681660899654 Z_253_2_1 * Z_401_0_1 + 0.4 Z_253_2_1 * Z_474_1_1
   + 8.4162e-05 Z_253_2_1 * Z_474_2_1
   + 4.4444444444444436e-04 Z_253_2_1 * Z_121_1_1
   + 0.0027681660899654 Z_253_2_1 * Z_121_0_1
   + 0.0311115558597514 Z_253_2_2 * Z_35_0_2
   + 0.1275160936890178 Z_253_2_2 * Z_19_1_2
   + 0.0547108294056277 Z_253_2_2 * Z_19_3_2
   + 0.0595942375167125 Z_253_2_2 * Z_19_7_2
   + 0.2330587627993987 Z_253_2_2 * Z_19_6_2
   + 0.0703466334428251 Z_253_2_2 * Z_19_4_2
   + 2.2305512832387206e-04 Z_253_2_2 * Z_193_0_2
   + 0.0027681660899654 Z_253_2_2 * Z_401_0_2 + 0.4 Z_253_2_2 * Z_474_1_2
   + 8.4162e-05 Z_253_2_2 * Z_474_2_2
   + 4.4444444444444436e-04 Z_253_2_2 * Z_121_1_2
   + 0.0027681660899654 Z_253_2_2 * Z_121_0_2
   + 0.0311115558597514 Z_253_2_3 * Z_35_0_3
   + 0.1275160936890178 Z_253_2_3 * Z_19_1_3
   + 0.0547108294056277 Z_253_2_3 * Z_19_3_3
   + 0.0595942375167125 Z_253_2_3 * Z_19_7_3
   + 0.2330587627993987 Z_253_2_3 * Z_19_6_3
   + 0.0703466334428251 Z_253_2_3 * Z_19_4_3
   + 2.2305512832387206e-04 Z_253_2_3 * Z_193_0_3
   + 0.0027681660899654 Z_253_2_3 * Z_401_0_3 + 0.4 Z_253_2_3 * Z_474_1_3
   + 8.4162e-05 Z_253_2_3 * Z_474_2_3
   + 4.4444444444444436e-04 Z_253_2_3 * Z_121_1_3
   + 0.0027681660899654 Z_253_2_3 * Z_121_0_3 + 0.4 Z_36_0_0 * Z_19_3_0
   + 0.4 Z_36_0_0 * Z_19_7_0 + 0.4 Z_36_0_0 * Z_19_4_0
   + 0.4 Z_36_0_1 * Z_19_3_1 + 0.4 Z_36_0_1 * Z_19_7_1
   + 0.4 Z_36_0_1 * Z_19_4_1 + 0.4 Z_36_0_2 * Z_19_3_2
   + 0.4 Z_36_0_2 * Z_19_7_2 + 0.4 Z_36_0_2 * Z_19_4_2
   + 0.4 Z_36_0_3 * Z_19_3_3 + 0.4 Z_36_0_3 * Z_19_7_3
   + 0.4 Z_36_0_3 * Z_19_4_3 + 0.0311115558597514 Z_35_0_0 * Z_19_3_0
   + 0.0311115558597514 Z_35_0_0 * Z_19_7_0
   + 0.0472419956341955 Z_35_0_0 * Z_19_6_0
   + 0.0311115558597514 Z_35_0_0 * Z_19_4_0
   + 5.02993e-06 Z_35_0_0 * Z_193_0_0
   + 0.0652129715416647 Z_35_0_0 * Z_474_3_0
   + 0.1520757291164853 Z_35_0_0 * Z_474_2_0
   + 0.0311115558597514 Z_35_0_1 * Z_19_3_1
   + 0.0311115558597514 Z_35_0_1 * Z_19_7_1
   + 0.0472419956341955 Z_35_0_1 * Z_19_6_1
   + 0.0311115558597514 Z_35_0_1 * Z_19_4_1
   + 5.02993e-06 Z_35_0_1 * Z_193_0_1
   + 0.0652129715416647 Z_35_0_1 * Z_474_3_1
   + 0.1520757291164853 Z_35_0_1 * Z_474_2_1
   + 0.0311115558597514 Z_35_0_2 * Z_19_3_2
   + 0.0311115558597514 Z_35_0_2 * Z_19_7_2
   + 0.0472419956341955 Z_35_0_2 * Z_19_6_2
   + 0.0311115558597514 Z_35_0_2 * Z_19_4_2
   + 5.02993e-06 Z_35_0_2 * Z_193_0_2
   + 0.0652129715416647 Z_35_0_2 * Z_474_3_2
   + 0.1520757291164853 Z_35_0_2 * Z_474_2_2
   + 0.0311115558597514 Z_35_0_3 * Z_19_3_3
   + 0.0311115558597514 Z_35_0_3 * Z_19_7_3
   + 0.0472419956341955 Z_35_0_3 * Z_19_6_3
   + 0.0311115558597514 Z_35_0_3 * Z_19_4_3
   + 5.02993e-06 Z_35_0_3 * Z_193_0_3
   + 0.0652129715416647 Z_35_0_3 * Z_474_3_3
   + 0.1520757291164853 Z_35_0_3 * Z_474_2_3
   + 0.00138888888888889 Z_19_0_0 * Z_401_0_0
   + 0.00138888888888889 Z_19_0_0 * Z_121_0_0
   + 0.00138888888888889 Z_19_0_1 * Z_401_0_1
   + 0.00138888888888889 Z_19_0_1 * Z_121_0_1
   + 0.00138888888888889 Z_19_0_2 * Z_401_0_2
   + 0.00138888888888889 Z_19_0_2 * Z_121_0_2
   + 0.00138888888888889 Z_19_0_3 * Z_401_0_3
   + 0.00138888888888889 Z_19_0_3 * Z_121_0_3
   + 3.8834621520167682e-04 Z_19_3_0 * Z_464_0_0 + 0.1 Z_19_3_0 * Z_401_0_0
   + 1.373785726893539e-04 Z_19_3_0 * Z_474_1_0 + 0.1 Z_19_3_0 * Z_121_0_0
   + 3.8834621520167682e-04 Z_19_3_1 * Z_464_0_1 + 0.1 Z_19_3_1 * Z_401_0_1
   + 1.373785726893539e-04 Z_19_3_1 * Z_474_1_1 + 0.1 Z_19_3_1 * Z_121_0_1
   + 3.8834621520167682e-04 Z_19_3_2 * Z_464_0_2 + 0.1 Z_19_3_2 * Z_401_0_2
   + 1.373785726893539e-04 Z_19_3_2 * Z_474_1_2 + 0.1 Z_19_3_2 * Z_121_0_2
   + 3.8834621520167682e-04 Z_19_3_3 * Z_464_0_3 + 0.1 Z_19_3_3 * Z_401_0_3
   + 1.373785726893539e-04 Z_19_3_3 * Z_474_1_3 + 0.1 Z_19_3_3 * Z_121_0_3
   + 4.2300942681494983e-04 Z_19_7_0 * Z_464_0_0 + 0.1 Z_19_7_0 * Z_401_0_0
   + 1.4964078189818445e-04 Z_19_7_0 * Z_474_1_0 + 0.1 Z_19_7_0 * Z_121_0_0
   + 4.2300942681494983e-04 Z_19_7_1 * Z_464_0_1 + 0.1 Z_19_7_1 * Z_401_0_1
   + 1.4964078189818445e-04 Z_19_7_1 * Z_474_1_1 + 0.1 Z_19_7_1 * Z_121_0_1
   + 4.2300942681494983e-04 Z_19_7_2 * Z_464_0_2 + 0.1 Z_19_7_2 * Z_401_0_2
   + 1.4964078189818445e-04 Z_19_7_2 * Z_474_1_2 + 0.1 Z_19_7_2 * Z_121_0_2
   + 4.2300942681494983e-04 Z_19_7_3 * Z_464_0_3 + 0.1 Z_19_7_3 * Z_401_0_3
   + 1.4964078189818445e-04 Z_19_7_3 * Z_474_1_3 + 0.1 Z_19_7_3 * Z_121_0_3
   + 0.1 Z_19_6_0 * Z_401_0_0 + 0.1 Z_19_6_0 * Z_121_0_0
   + 0.1 Z_19_6_1 * Z_401_0_1 + 0.1 Z_19_6_1 * Z_121_0_1
   + 0.1 Z_19_6_2 * Z_401_0_2 + 0.1 Z_19_6_2 * Z_121_0_2
   + 0.1 Z_19_6_3 * Z_401_0_3 + 0.1 Z_19_6_3 * Z_121_0_3
   + 4.9933165237101582e-04 Z_19_4_0 * Z_464_0_0 + 0.1 Z_19_4_0 * Z_401_0_0
   + 0.00017664 Z_19_4_0 * Z_474_1_0 + 0.1 Z_19_4_0 * Z_121_0_0
   + 4.9933165237101582e-04 Z_19_4_1 * Z_464_0_1 + 0.1 Z_19_4_1 * Z_401_0_1
   + 0.00017664 Z_19_4_1 * Z_474_1_1 + 0.1 Z_19_4_1 * Z_121_0_1
   + 4.9933165237101582e-04 Z_19_4_2 * Z_464_0_2 + 0.1 Z_19_4_2 * Z_401_0_2
   + 0.00017664 Z_19_4_2 * Z_474_1_2 + 0.1 Z_19_4_2 * Z_121_0_2
   + 4.9933165237101582e-04 Z_19_4_3 * Z_464_0_3 + 0.1 Z_19_4_3 * Z_401_0_3
   + 0.00017664 Z_19_4_3 * Z_474_1_3 + 0.1 Z_19_4_3 * Z_121_0_3
   + 0.0706274003996149 Z_464_0_0 * Z_401_0_0
   + 0.0706274003996149 Z_464_0_0 * Z_121_0_0
   + 0.0706274003996149 Z_464_0_1 * Z_401_0_1
   + 0.0706274003996149 Z_464_0_1 * Z_121_0_1
   + 0.0706274003996149 Z_464_0_2 * Z_401_0_2
   + 0.0706274003996149 Z_464_0_2 * Z_121_0_2
   + 0.0706274003996149 Z_464_0_3 * Z_401_0_3
   + 0.0706274003996149 Z_464_0_3 * Z_121_0_3
   + 0.0027681660899654 Z_401_0_0 * Z_474_1_0
   + 0.00154320987654321 Z_401_0_0 * Z_474_0_0 + 0.4 Z_401_0_0 * Z_121_0_0
   + 0.0027681660899654 Z_401_0_1 * Z_474_1_1
   + 0.00154320987654321 Z_401_0_1 * Z_474_0_1 + 0.4 Z_401_0_1 * Z_121_0_1
   + 0.0027681660899654 Z_401_0_2 * Z_474_1_2
   + 0.00154320987654321 Z_401_0_2 * Z_474_0_2 + 0.4 Z_401_0_2 * Z_121_0_2
   + 0.0027681660899654 Z_401_0_3 * Z_474_1_3
   + 0.00154320987654321 Z_401_0_3 * Z_474_0_3 + 0.4 Z_401_0_3 * Z_121_0_3
   + 0.0027681660899654 Z_474_1_0 * Z_121_0_0
   + 0.0027681660899654 Z_474_1_1 * Z_121_0_1
   + 0.0027681660899654 Z_474_1_2 * Z_121_0_2
   + 0.0027681660899654 Z_474_1_3 * Z_121_0_3
   + 0.00154320987654321 Z_474_0_0 * Z_121_0_0
   + 0.00154320987654321 Z_474_0_1 * Z_121_0_1
   + 0.00154320987654321 Z_474_0_2 * Z_121_0_2
   + 0.00154320987654321 Z_474_0_3 * Z_121_0_3 ] / 2 
Subject To
 constraint1_3900: Z_390_0_0 + Z_390_0_1 + Z_390_0_2 + Z_390_0_3 <= 1
 constraint1_3901: Z_390_1_0 + Z_390_1_1 + Z_390_1_2 + Z_390_1_3 <= 1
 constraint1_3902: Z_390_2_0 + Z_390_2_1 + Z_390_2_2 + Z_390_2_3 <= 1
 constraint1_3903: Z_390_3_0 + Z_390_3_1 + Z_390_3_2 + Z_390_3_3 <= 1
 constraint1_4240: Z_424_0_0 + Z_424_0_1 + Z_424_0_2 + Z_424_0_3 <= 1
 constraint1_2621: Z_262_1_0 + Z_262_1_1 + Z_262_1_2 + Z_262_1_3 <= 1
 constraint1_2622: Z_262_2_0 + Z_262_2_1 + Z_262_2_2 + Z_262_2_3 <= 1
 constraint1_2623: Z_262_3_0 + Z_262_3_1 + Z_262_3_2 + Z_262_3_3 <= 1
 constraint1_2624: Z_262_4_0 + Z_262_4_1 + Z_262_4_2 + Z_262_4_3 <= 1
 constraint1_2620: Z_262_0_0 + Z_262_0_1 + Z_262_0_2 + Z_262_0_3 <= 1
 constraint1_560: Z_56_0_0 + Z_56_0_1 + Z_56_0_2 + Z_56_0_3 <= 1
 constraint1_2539: Z_253_9_0 + Z_253_9_1 + Z_253_9_2 + Z_253_9_3 <= 1
 constraint1_2531: Z_253_1_0 + Z_253_1_1 + Z_253_1_2 + Z_253_1_3 <= 1
 constraint1_2530: Z_253_0_0 + Z_253_0_1 + Z_253_0_2 + Z_253_0_3 <= 1
 constraint1_2532: Z_253_2_0 + Z_253_2_1 + Z_253_2_2 + Z_253_2_3 <= 1
 constraint1_360: Z_36_0_0 + Z_36_0_1 + Z_36_0_2 + Z_36_0_3 <= 1
 constraint1_350: Z_35_0_0 + Z_35_0_1 + Z_35_0_2 + Z_35_0_3 <= 1
 constraint1_195: Z_19_5_0 + Z_19_5_1 + Z_19_5_2 + Z_19_5_3 <= 1
 constraint1_190: Z_19_0_0 + Z_19_0_1 + Z_19_0_2 + Z_19_0_3 <= 1
 constraint1_192: Z_19_2_0 + Z_19_2_1 + Z_19_2_2 + Z_19_2_3 <= 1
 constraint1_191: Z_19_1_0 + Z_19_1_1 + Z_19_1_2 + Z_19_1_3 <= 1
 constraint1_193: Z_19_3_0 + Z_19_3_1 + Z_19_3_2 + Z_19_3_3 <= 1
 constraint1_197: Z_19_7_0 + Z_19_7_1 + Z_19_7_2 + Z_19_7_3 <= 1
 constraint1_196: Z_19_6_0 + Z_19_6_1 + Z_19_6_2 + Z_19_6_3 <= 1
 constraint1_194: Z_19_4_0 + Z_19_4_1 + Z_19_4_2 + Z_19_4_3 <= 1
 constraint1_4640: Z_464_0_0 + Z_464_0_1 + Z_464_0_2 + Z_464_0_3 <= 1
 constraint1_1930: Z_193_0_0 + Z_193_0_1 + Z_193_0_2 + Z_193_0_3 <= 1
 constraint1_4010: Z_401_0_0 + Z_401_0_1 + Z_401_0_2 + Z_401_0_3 <= 1
 constraint1_4743: Z_474_3_0 + Z_474_3_1 + Z_474_3_2 + Z_474_3_3 <= 1
 constraint1_4741: Z_474_1_0 + Z_474_1_1 + Z_474_1_2 + Z_474_1_3 <= 1
 constraint1_4740: Z_474_0_0 + Z_474_0_1 + Z_474_0_2 + Z_474_0_3 <= 1
 constraint1_4742: Z_474_2_0 + Z_474_2_1 + Z_474_2_2 + Z_474_2_3 <= 1
 constraint1_1211: Z_121_1_0 + Z_121_1_1 + Z_121_1_2 + Z_121_1_3 <= 1
 constraint1_1210: Z_121_0_0 + Z_121_0_1 + Z_121_0_2 + Z_121_0_3 <= 1
 constraint2_3900: Z_390_0_0 + Z_390_1_0 + Z_390_2_0 + Z_390_3_0 <= 1
 constraint2_3901: Z_390_0_1 + Z_390_1_1 + Z_390_2_1 + Z_390_3_1 <= 1
 constraint2_3902: Z_390_0_2 + Z_390_1_2 + Z_390_2_2 + Z_390_3_2 <= 1
 constraint2_3903: Z_390_0_3 + Z_390_1_3 + Z_390_2_3 + Z_390_3_3 <= 1
 constraint2_4240: Z_424_0_0 <= 1
 constraint2_4241: Z_424_0_1 <= 1
 constraint2_4242: Z_424_0_2 <= 1
 constraint2_4243: Z_424_0_3 <= 1
 constraint2_2620: Z_262_1_0 + Z_262_2_0 + Z_262_3_0 + Z_262_4_0
   + Z_262_0_0 <= 1
 constraint2_2621: Z_262_1_1 + Z_262_2_1 + Z_262_3_1 + Z_262_4_1
   + Z_262_0_1 <= 1
 constraint2_2622: Z_262_1_2 + Z_262_2_2 + Z_262_3_2 + Z_262_4_2
   + Z_262_0_2 <= 1
 constraint2_2623: Z_262_1_3 + Z_262_2_3 + Z_262_3_3 + Z_262_4_3
   + Z_262_0_3 <= 1
 constraint2_560: Z_56_0_0 <= 1
 constraint2_561: Z_56_0_1 <= 1
 constraint2_562: Z_56_0_2 <= 1
 constraint2_563: Z_56_0_3 <= 1
 constraint2_2530: Z_253_9_0 + Z_253_1_0 + Z_253_0_0 + Z_253_2_0 <= 1
 constraint2_2531: Z_253_9_1 + Z_253_1_1 + Z_253_0_1 + Z_253_2_1 <= 1
 constraint2_2532: Z_253_9_2 + Z_253_1_2 + Z_253_0_2 + Z_253_2_2 <= 1
 constraint2_2533: Z_253_9_3 + Z_253_1_3 + Z_253_0_3 + Z_253_2_3 <= 1
 constraint2_360: Z_36_0_0 <= 1
 constraint2_361: Z_36_0_1 <= 1
 constraint2_362: Z_36_0_2 <= 1
 constraint2_363: Z_36_0_3 <= 1
 constraint2_350: Z_35_0_0 <= 1
 constraint2_351: Z_35_0_1 <= 1
 constraint2_352: Z_35_0_2 <= 1
 constraint2_353: Z_35_0_3 <= 1
 constraint2_190: Z_19_5_0 + Z_19_0_0 + Z_19_2_0 + Z_19_1_0 + Z_19_3_0
   + Z_19_7_0 + Z_19_6_0 + Z_19_4_0 <= 1
 constraint2_191: Z_19_5_1 + Z_19_0_1 + Z_19_2_1 + Z_19_1_1 + Z_19_3_1
   + Z_19_7_1 + Z_19_6_1 + Z_19_4_1 <= 1
 constraint2_192: Z_19_5_2 + Z_19_0_2 + Z_19_2_2 + Z_19_1_2 + Z_19_3_2
   + Z_19_7_2 + Z_19_6_2 + Z_19_4_2 <= 1
 constraint2_193: Z_19_5_3 + Z_19_0_3 + Z_19_2_3 + Z_19_1_3 + Z_19_3_3
   + Z_19_7_3 + Z_19_6_3 + Z_19_4_3 <= 1
 constraint2_4640: Z_464_0_0 <= 1
 constraint2_4641: Z_464_0_1 <= 1
 constraint2_4642: Z_464_0_2 <= 1
 constraint2_4643: Z_464_0_3 <= 1
 constraint2_1930: Z_193_0_0 <= 1
 constraint2_1931: Z_193_0_1 <= 1
 constraint2_1932: Z_193_0_2 <= 1
 constraint2_1933: Z_193_0_3 <= 1
 constraint2_4010: Z_401_0_0 <= 1
 constraint2_4011: Z_401_0_1 <= 1
 constraint2_4012: Z_401_0_2 <= 1
 constraint2_4013: Z_401_0_3 <= 1
 constraint2_4740: Z_474_3_0 + Z_474_1_0 + Z_474_0_0 + Z_474_2_0 <= 1
 constraint2_4741: Z_474_3_1 + Z_474_1_1 + Z_474_0_1 + Z_474_2_1 <= 1
 constraint2_4742: Z_474_3_2 + Z_474_1_2 + Z_474_0_2 + Z_474_2_2 <= 1
 constraint2_4743: Z_474_3_3 + Z_474_1_3 + Z_474_0_3 + Z_474_2_3 <= 1
 constraint2_1210: Z_121_1_0 + Z_121_0_0 <= 1
 constraint2_1211: Z_121_1_1 + Z_121_0_1 <= 1
 constraint2_1212: Z_121_1_2 + Z_121_0_2 <= 1
 constraint2_1213: Z_121_1_3 + Z_121_0_3 <= 1
Bounds
Binaries
 Z_390_0_0 Z_390_0_1 Z_390_0_2 Z_390_0_3 Z_390_1_0 Z_390_1_1 Z_390_1_2
 Z_390_1_3 Z_390_2_0 Z_390_2_1 Z_390_2_2 Z_390_2_3 Z_390_3_0 Z_390_3_1
 Z_390_3_2 Z_390_3_3 Z_424_0_0 Z_424_0_1 Z_424_0_2 Z_424_0_3 Z_262_1_0
 Z_262_1_1 Z_262_1_2 Z_262_1_3 Z_262_2_0 Z_262_2_1 Z_262_2_2 Z_262_2_3
 Z_262_3_0 Z_262_3_1 Z_262_3_2 Z_262_3_3 Z_262_4_0 Z_262_4_1 Z_262_4_2
 Z_262_4_3 Z_262_0_0 Z_262_0_1 Z_262_0_2 Z_262_0_3 Z_56_0_0 Z_56_0_1
 Z_56_0_2 Z_56_0_3 Z_253_9_0 Z_253_9_1 Z_253_9_2 Z_253_9_3 Z_253_1_0
 Z_253_1_1 Z_253_1_2 Z_253_1_3 Z_253_0_0 Z_253_0_1 Z_253_0_2 Z_253_0_3
 Z_253_2_0 Z_253_2_1 Z_253_2_2 Z_253_2_3 Z_36_0_0 Z_36_0_1 Z_36_0_2
 Z_36_0_3 Z_35_0_0 Z_35_0_1 Z_35_0_2 Z_35_0_3 Z_19_5_0 Z_19_5_1 Z_19_5_2
 Z_19_5_3 Z_19_0_0 Z_19_0_1 Z_19_0_2 Z_19_0_3 Z_19_2_0 Z_19_2_1 Z_19_2_2
 Z_19_2_3 Z_19_1_0 Z_19_1_1 Z_19_1_2 Z_19_1_3 Z_19_3_0 Z_19_3_1 Z_19_3_2
 Z_19_3_3 Z_19_7_0 Z_19_7_1 Z_19_7_2 Z_19_7_3 Z_19_6_0 Z_19_6_1 Z_19_6_2
 Z_19_6_3 Z_19_4_0 Z_19_4_1 Z_19_4_2 Z_19_4_3 Z_464_0_0 Z_464_0_1 Z_464_0_2
 Z_464_0_3 Z_193_0_0 Z_193_0_1 Z_193_0_2 Z_193_0_3 Z_401_0_0 Z_401_0_1
 Z_401_0_2 Z_401_0_3 Z_474_3_0 Z_474_3_1 Z_474_3_2 Z_474_3_3 Z_474_1_0
 Z_474_1_1 Z_474_1_2 Z_474_1_3 Z_474_0_0 Z_474_0_1 Z_474_0_2 Z_474_0_3
 Z_474_2_0 Z_474_2_1 Z_474_2_2 Z_474_2_3 Z_121_1_0 Z_121_1_1 Z_121_1_2
 Z_121_1_3 Z_121_0_0 Z_121_0_1 Z_121_0_2 Z_121_0_3
End
